
Gurobi 9.5.2 (mac64[arm]) logging started Wed Apr 19 13:59:27 2023

Set parameter LogFile to value "Java/output/pure_mip/scenario_seed_0_nJob_50_machineCount_1/mip_increment_1/log.txt"
Gurobi Optimizer version 9.5.2 build v9.5.2rc0 (mac64[arm])
Thread count: 8 physical cores, 8 logical processors, using up to 8 threads
Optimize a model with 2932 rows, 67050 columns and 832352 nonzeros
Model fingerprint: 0x295c7393
Variable types: 0 continuous, 67050 integer (67050 binary)
Coefficient statistics:
  Matrix range     [1e+00, 5e+02]
  Objective range  [1e+00, 2e+07]
  Bounds range     [1e+00, 1e+00]
  RHS range        [1e+00, 1e+00]
Presolve removed 17 rows and 3647 columns
Presolve time: 0.79s
Presolved: 2915 rows, 63403 columns, 777403 nonzeros
Variable types: 0 continuous, 63403 integer (63375 binary)

Root simplex log...

Iteration    Objective       Primal Inf.    Dual Inf.      Time
   23993    2.9531837e+04   3.983329e+06   0.000000e+00      5s
   44860    3.2241804e+04   2.085690e+04   0.000000e+00     10s
   54856    3.2357476e+04   0.000000e+00   0.000000e+00     13s

Root relaxation: objective 3.235748e+04, 54856 iterations, 12.21 seconds (32.68 work units)

    Nodes    |    Current Node    |     Objective Bounds      |     Work
 Expl Unexpl |  Obj  Depth IntInf | Incumbent    BestBd   Gap | It/Node Time

     0     0 32357.4762    0  393          - 32357.4762      -     -   13s
     0     0 32388.0331    0  733          - 32388.0331      -     -   17s
     0     0 32394.8573    0  780          - 32394.8573      -     -   19s
     0     0 32394.8713    0  757          - 32394.8713      -     -   20s
     0     0 32394.8713    0  770          - 32394.8713      -     -   20s
     0     0 32402.3143    0  781          - 32402.3143      -     -   25s
     0     0 32419.5184    0  852          - 32419.5184      -     -   31s
     0     0 32426.8485    0  824          - 32426.8485      -     -   34s
     0     0 32426.8680    0  823          - 32426.8680      -     -   35s
     0     0 32426.8683    0  824          - 32426.8683      -     -   35s
     0     0 32447.8634    0  889          - 32447.8634      -     -   40s
     0     0 32449.3144    0  945          - 32449.3144      -     -   42s
     0     0 32457.4056    0  942          - 32457.4056      -     -   45s
     0     0 32457.4835    0  975          - 32457.4835      -     -   45s
     0     0 32457.6023    0  936          - 32457.6023      -     -   46s
     0     0 32457.6062    0  934          - 32457.6062      -     -   46s
     0     0 32470.4031    0  986          - 32470.4031      -     -   51s
     0     0 32471.5001    0 1058          - 32471.5001      -     -   53s
     0     0 32471.9101    0 1081          - 32471.9101      -     -   53s
     0     0 32472.0144    0 1096          - 32472.0144      -     -   54s
     0     0 32472.0168    0 1099          - 32472.0168      -     -   54s
     0     0 32474.8919    0 1063          - 32474.8919      -     -   57s
     0     0 32475.6123    0 1092          - 32475.6123      -     -   58s
     0     0 32475.7095    0 1094          - 32475.7095      -     -   59s
     0     0 32475.7197    0 1106          - 32475.7197      -     -   59s
     0     0 32480.7238    0 1107          - 32480.7238      -     -   62s
     0     0 32481.1417    0 1160          - 32481.1417      -     -   64s
     0     0 32481.4870    0 1179          - 32481.4870      -     -   65s
     0     0 32481.5437    0 1177          - 32481.5437      -     -   65s
     0     0 32481.5654    0 1175          - 32481.5654      -     -   65s
     0     0 32484.0407    0 1181          - 32484.0407      -     -   68s
     0     0 32484.3161    0 1201          - 32484.3161      -     -   69s
     0     0 32484.3840    0 1184          - 32484.3840      -     -   70s
     0     0 32484.4636    0 1211          - 32484.4636      -     -   70s
     0     0 32484.4799    0 1216          - 32484.4799      -     -   71s
     0     0 32486.3718    0 1207          - 32486.3718      -     -   73s
     0     0 32486.5525    0 1228          - 32486.5525      -     -   74s
     0     0 32486.6486    0 1236          - 32486.6486      -     -   75s
     0     0 32486.6681    0 1252          - 32486.6681      -     -   75s
     0     0 32487.4869    0 1248          - 32487.4869      -     -   77s
     0     0 32487.5498    0 1245          - 32487.5498      -     -   78s
     0     0 32487.5552    0 1255          - 32487.5552      -     -   78s
     0     0 32489.0117    0 1237          - 32489.0117      -     -   80s
     0     0 32489.0997    0 1256          - 32489.0997      -     -   81s
     0     0 32489.1107    0 1248          - 32489.1107      -     -   81s
     0     0 32489.7350    0 1285          - 32489.7350      -     -   83s
     0     0 32489.9638    0 1305          - 32489.9638      -     -   84s
     0     0 32489.9997    0 1335          - 32489.9997      -     -   85s
     0     0 32490.8928    0 1283          - 32490.8928      -     -   87s
     0     0 32491.0814    0 1296          - 32491.0814      -     -   88s
     0     0 32491.1059    0 1339          - 32491.1059      -     -   88s
     0     0 32491.9112    0 1301          - 32491.9112      -     -   90s
     0     0 32492.1507    0 1358          - 32492.1507      -     -   91s
     0     0 32492.2100    0 1372          - 32492.2100      -     -   92s
     0     0 32492.8409    0 1356          - 32492.8409      -     -   94s
     0     0 32492.8978    0 1366          - 32492.8978      -     -   94s
     0     0 32496.6613    0 1384          - 32496.6613      -     -   99s
     0     0 32497.0597    0 1404          - 32497.0597      -     -  101s
     0     0 32497.1708    0 1410          - 32497.1708      -     -  102s
     0     0 32497.1961    0 1421          - 32497.1961      -     -  102s
     0     0 32499.5006    0 1422          - 32499.5006      -     -  106s
     0     0 32499.8097    0 1452          - 32499.8097      -     -  108s
     0     0 32499.8339    0 1462          - 32499.8339      -     -  108s
     0     0 32503.0361    0 1394          - 32503.0361      -     -  113s
     0     0 32503.6239    0 1363          - 32503.6239      -     -  114s
     0     0 32503.7661    0 1402          - 32503.7661      -     -  115s
     0     0 32503.8040    0 1423          - 32503.8040      -     -  116s
     0     0 32506.1659    0 1416          - 32506.1659      -     -  119s
     0     0 32506.4524    0 1431          - 32506.4524      -     -  121s
     0     0 32506.4813    0 1448          - 32506.4813      -     -  121s
     0     0 32508.9043    0 1429          - 32508.9043      -     -  125s
     0     0 32509.0151    0 1456          - 32509.0151      -     -  126s
     0     0 32509.0887    0 1457          - 32509.0887      -     -  126s
     0     0 32511.7439    0 1405          - 32511.7439      -     -  131s
     0     0 32512.0426    0 1435          - 32512.0426      -     -  132s
     0     0 32512.0738    0 1431          - 32512.0738      -     -  133s
     0     0 32513.6767    0 1418          - 32513.6767      -     -  136s
     0     0 32514.0161    0 1484          - 32514.0161      -     -  138s
     0     0 32514.0694    0 1476          - 32514.0694      -     -  138s
     0     0 32516.9354    0 1458          - 32516.9354      -     -  143s
     0     0 32517.9910    0 1497          - 32517.9910      -     -  146s
     0     0 32518.0963    0 1489          - 32518.0963      -     -  147s
     0     0 32518.2751    0 1498          - 32518.2751      -     -  148s
     0     0 32518.3393    0 1545          - 32518.3393      -     -  148s
     0     0 32518.7339    0 1529          - 32518.7339      -     -  150s
     0     0 32518.8352    0 1552          - 32518.8352      -     -  151s
     0     0 32518.8533    0 1551          - 32518.8533      -     -  152s
     0     0 32519.6325    0 1522          - 32519.6325      -     -  155s
H    0     0                    1.353887e+08 32519.6325   100%     -  155s
     0     0 32519.6325    0 1522 1.3539e+08 32519.6325   100%     -  156s
H    0     0                    1.467999e+07 32519.6358   100%     -  186s
H    0     0                    1.355943e+07 32519.6358   100%     -  186s
H    0     2                    1.337820e+07 32519.6358   100%     -  187s
H    0     2                    1.159735e+07 32519.6358   100%     -  187s
     0     2 32519.6358    0 1502 1.1597e+07 32519.6358   100%     -  187s
     1     4 32519.6358    1 1504 1.1597e+07 32519.6358   100%   824  195s
     3     8 32521.7367    2 1471 1.1597e+07 32519.6358   100%  5907  200s
     7    16 32522.5090    3 1513 1.1597e+07 32520.2428   100%  4543  210s
    15    24 32537.2088    4 1333 1.1597e+07 32520.7654   100%  6166  223s
    23    32 32523.7880    4 1516 1.1597e+07 32520.7654   100%  6845  239s
H   31    40                    1.143783e+07 32520.9517   100%  7512  252s
H   31    40                    9547929.0000 32520.9517   100%  7512  252s
H   32    40                    4501138.0000 32520.9517  99.3%  7581  252s
    39    48 32524.0454    5 1488 4501138.00 32520.9517  99.3%  7059  265s
    47    56 32535.9313    6 1351 4501138.00 32520.9652  99.3%  6976  277s
    55    67 32524.0454    6 1486 4501138.00 32520.9652  99.3%  6763  299s
H   66    75                    4500822.0000 32521.6578  99.3%  7283  313s
H   66    75                    3611817.0000 32521.6578  99.1%  7283  313s
H   68    75                    3556837.0000 32521.6578  99.1%  7093  313s
H   69    75                    2002697.0000 32521.6578  98.4%  7006  313s
H   70    75                    1875253.0000 32521.6578  98.3%  6942  313s
    74    85 32527.5128    8 1440 1875253.00 32521.6582  98.3%  7140  326s
    84    98 32536.7784    9 1408 1875253.00 32521.6934  98.3%  7153  337s
    97   110 32524.5703    9 1513 1875253.00 32523.1566  98.3%  6712  349s
H  109   119                    1875223.0000 32523.1566  98.3%  6403  367s
H  111   119                    1875191.0000 32523.1566  98.3%  6358  367s
H  112   119                    1758463.0000 32523.1566  98.2%  6325  367s
H  114   119                    361664.00000 32523.1566  91.0%  6246  367s
   118   132 32540.9056   11 1255 361664.000 32523.1566  91.0%  6301  383s
   131   145 32540.9056   12 1255 361664.000 32523.1566  91.0%  6307  398s
H  144   158                    325335.00000 32523.1566  90.0%  6440  415s
H  144   158                    297729.00000 32523.1566  89.1%  6440  415s
H  151   158                    178653.00000 32523.1566  81.8%  6242  415s
   157   177 32545.3943   14 1274 178653.000 32523.1566  81.8%  6298  434s
   176   189 32548.3357   15 1288 178653.000 32523.1566  81.8%  6111  456s
H  188   198                    178603.00000 32523.1566  81.8%  6417  487s
H  188   198                    106325.00000 32523.1566  69.4%  6417  487s
H  194   198                    76481.000000 32523.1566  57.5%  6464  487s
   197   211 32563.3814   16 1242 76481.0000 32523.1566  57.5%  6476  519s
   210   228 32552.1471   17 1287 76481.0000 32523.1566  57.5%  6809  534s
H  227   240                    66605.000000 32523.1566  51.2%  6767  555s
H  238   240                    49747.000000 32523.1566  34.6%  6827  555s
   241   255 32564.3313   19 1271 49747.0000 32523.1566  34.6%  6810  575s
   256   273 32570.0100   20 1279 49747.0000 32523.1566  34.6%  6987  592s
H  274   282                    46869.000000 32523.1566  30.6%  6969  600s
H  274   282                    44171.000000 32523.1566  26.4%  6969  600s
H  275   282                    37910.000000 32523.1566  14.2%  6950  600s
H  282   282                    35403.000000 32523.1566  8.13%  6837  600s

Cutting planes:
  Cover: 18
  Clique: 553
  MIR: 136
  StrongCG: 43
  GUB cover: 415
  Zero half: 4
  RLT: 1
  Relax-and-lift: 12

Explored 283 nodes (2192521 simplex iterations) in 600.05 seconds (1980.11 work units)
Thread count was 8 (of 8 available processors)

Solution count 10: 35403 37910 44171 ... 178653

Time limit reached
Best objective 3.540300000000e+04, best bound 3.252315657629e+04, gap 8.1345%
